NAME : X_38_seed_123_id_12
TYPE : CVRP
DIMENSION : 275
EDGE_WEIGHT_TYPE : EUC_2D
CAPACITY : 10
NODE_COORD_SECTION
1	478	661
2	668	687
3	588	525
4	488	656
5	581	511
6	622	413
7	568	476
8	420	416
9	564	480
10	571	622
11	556	620
12	549	668
13	487	653
14	591	744
15	642	514
16	625	595
17	704	672
18	582	826
19	601	673
20	551	523
21	351	698
22	533	787
23	619	609
24	621	597
25	698	646
26	345	554
27	649	697
28	674	682
29	635	696
30	504	610
31	465	717
32	815	639
33	688	469
34	576	593
35	627	758
36	657	710
37	683	680
38	584	665
39	466	610
40	622	511
41	313	702
42	457	708
43	617	724
44	643	484
45	636	519
46	687	661
47	654	701
48	687	466
49	580	613
50	652	558
51	456	616
52	627	513
53	388	593
54	535	473
55	579	518
56	449	691
57	444	538
58	676	380
59	567	560
60	644	652
61	433	682
62	498	639
63	671	659
64	926	683
65	646	486
66	631	482
67	640	698
68	626	711
69	555	540
70	593	464
71	659	667
72	478	518
73	664	500
74	501	539
75	742	499
76	623	502
77	558	685
78	630	393
79	623	642
80	649	562
81	691	737
82	705	474
83	462	686
84	744	504
85	541	529
86	503	649
87	566	658
88	485	771
89	665	686
90	602	525
91	678	703
92	660	794
93	488	684
94	511	554
95	487	627
96	516	568
97	538	689
98	599	407
99	697	633
100	572	486
101	650	543
102	629	628
103	522	632
104	396	691
105	460	631
106	615	588
107	426	653
108	785	695
109	474	616
110	523	626
111	628	481
112	501	586
113	509	550
114	608	685
115	394	698
116	509	561
117	607	751
118	509	682
119	529	502
120	542	490
121	669	636
122	622	544
123	524	707
124	526	740
125	538	717
126	591	430
127	404	547
128	578	441
129	764	542
130	585	594
131	648	598
132	559	505
133	542	685
134	603	506
135	612	555
136	596	606
137	494	700
138	607	489
139	710	651
140	513	779
141	471	670
142	717	599
143	481	684
144	581	559
145	445	652
146	485	464
147	575	482
148	633	667
149	491	617
150	689	699
151	726	507
152	605	675
153	507	457
154	437	673
155	684	760
156	718	645
157	525	547
158	486	688
159	448	660
160	517	541
161	683	523
162	655	715
163	535	579
164	632	623
165	637	711
166	502	693
167	651	750
168	688	547
169	426	843
170	530	509
171	549	470
172	645	709
173	496	537
174	692	743
175	751	703
176	722	709
177	668	633
178	783	688
179	427	754
180	691	668
181	534	607
182	576	530
183	644	660
184	516	662
185	566	609
186	578	496
187	454	615
188	534	644
189	616	512
190	480	690
191	595	525
192	517	519
193	742	782
194	632	609
195	784	491
196	663	655
197	537	570
198	471	676
199	519	611
200	544	726
201	634	541
202	597	693
203	646	664
204	695	664
205	464	665
206	446	610
207	488	650
208	633	717
209	518	645
210	352	573
211	492	631
212	572	520
213	530	570
214	584	531
215	373	696
216	683	702
217	521	700
218	552	465
219	555	571
220	496	549
221	632	521
222	540	407
223	646	665
224	509	677
225	666	668
226	764	776
227	478	525
228	463	736
229	726	694
230	621	522
231	493	512
232	600	603
233	666	692
234	582	824
235	666	674
236	342	695
237	679	669
238	621	584
239	631	523
240	603	646
241	505	651
242	536	671
243	583	699
244	336	722
245	656	657
246	449	712
247	364	693
248	421	792
249	735	646
250	594	650
251	551	523
252	639	647
253	467	690
254	600	560
255	636	602
256	455	721
257	744	842
258	598	475
259	596	594
260	649	607
261	442	528
262	518	547
263	692	671
264	627	725
265	593	635
266	602	542
267	765	685
268	661	721
269	696	681
270	667	689
271	479	485
272	442	565
273	515	752
274	578	510
275	482	591
DEMAND_SECTION
1	0
2	1
3	1
4	1
5	1
6	1
7	1
8	1
9	1
10	1
11	1
12	1
13	1
14	1
15	1
16	1
17	1
18	1
19	1
20	1
21	1
22	1
23	1
24	1
25	1
26	1
27	1
28	1
29	1
30	1
31	1
32	1
33	1
34	1
35	1
36	1
37	1
38	1
39	1
40	1
41	1
42	1
43	1
44	1
45	1
46	1
47	1
48	1
49	1
50	1
51	1
52	1
53	1
54	1
55	1
56	1
57	1
58	1
59	1
60	1
61	1
62	1
63	1
64	1
65	1
66	1
67	1
68	1
69	1
70	1
71	1
72	1
73	1
74	1
75	1
76	1
77	1
78	1
79	1
80	1
81	1
82	1
83	1
84	1
85	1
86	1
87	1
88	1
89	1
90	1
91	1
92	1
93	1
94	1
95	1
96	1
97	1
98	1
99	1
100	1
101	1
102	1
103	1
104	1
105	1
106	1
107	1
108	1
109	1
110	1
111	1
112	1
113	1
114	1
115	1
116	1
117	1
118	1
119	1
120	1
121	1
122	1
123	1
124	1
125	1
126	1
127	1
128	1
129	1
130	1
131	1
132	1
133	1
134	1
135	1
136	1
137	1
138	1
139	1
140	1
141	1
142	1
143	1
144	1
145	1
146	1
147	1
148	1
149	1
150	1
151	1
152	1
153	1
154	1
155	1
156	1
157	1
158	1
159	1
160	1
161	1
162	1
163	1
164	1
165	1
166	1
167	1
168	1
169	1
170	1
171	1
172	1
173	1
174	1
175	1
176	1
177	1
178	1
179	1
180	1
181	1
182	1
183	1
184	1
185	1
186	1
187	1
188	1
189	1
190	1
191	1
192	1
193	1
194	1
195	1
196	1
197	1
198	1
199	1
200	1
201	1
202	1
203	1
204	1
205	1
206	1
207	1
208	1
209	1
210	1
211	1
212	1
213	1
214	1
215	1
216	1
217	1
218	1
219	1
220	1
221	1
222	1
223	1
224	1
225	1
226	1
227	1
228	1
229	1
230	1
231	1
232	1
233	1
234	1
235	1
236	1
237	1
238	1
239	1
240	1
241	1
242	1
243	1
244	1
245	1
246	1
247	1
248	1
249	1
250	1
251	1
252	1
253	1
254	1
255	1
256	1
257	1
258	1
259	1
260	1
261	1
262	1
263	1
264	1
265	1
266	1
267	1
268	1
269	1
270	1
271	1
272	1
273	1
274	1
275	1
DEPOT_SECTION
1
-1
EOF
